3368609.0
1485
0 1 2 4 8 11 14 15 18 19 20 24 26 31 36 37 38 39 40 41 43 44 46 50 53 54 55 58 61 62 63 65 66 68 74 75 76 82 85 87 88 89 90 92 93 94 96 97 98 101 102 104 105 106 107 108 109 110 111 112 113 114 115 116 117 118 119 120 121 122 123 124 125 126 127 128 132 133 134 135 137 139 140 141 143 145 149 150 151 152 155 158 159 161 162 163 164 165 166 168 170 176 177 180 181 182 183 185 188 189 191 192 194 196 197 198 199 